RT is False
Default write of storage_offers_DA.csv just to have a file (but constraint should be inactive)
Reading model...
...model read.
creating competitive generators file...
...competitive generators recorded.
Loading data...
.. day-ahead data with real-time VRE data read.
Compiling instance...
...instance created.
Creating Offer Mitigation (model will solve as dispatch if TRUE)...
Solving...

Welcome to IBM(R) ILOG(R) CPLEX(R) Interactive Optimizer 12.9.0.0
  with Simplex, Mixed Integer & Barrier Optimizers
5725-A06 5725-A29 5724-Y48 5724-Y49 5724-Y54 5724-Y55 5655-Y21
Copyright IBM Corp. 1988, 2019.  All Rights Reserved.

Type 'help' for a list of available commands.
Type 'help' followed by a command name for more
information on commands.

CPLEX> Logfile 'cplex.log' closed.
Logfile 'C:\Users\llavin\Desktop\test919\logs\tmpottoxsxs.cplex.log' open.
CPLEX> New value for parallel optimization mode: -1
CPLEX> New value for mixed integer optimality gap tolerance: 0.01
CPLEX> New value for integrality tolerance: 1e-09
CPLEX> New value for feasibility tolerance: 0.01
CPLEX> New value for deterministic time limit in ticks: 75000
CPLEX> Problem 'C:\Users\llavin\Desktop\test919\logs\tmpq9c9nhno.pyomo.lp' read.
Read time = 0.05 sec. (3.04 ticks)
CPLEX> Problem name         : C:\Users\llavin\Desktop\test919\logs\tmpq9c9nhno.pyomo.lp
Objective sense      : Minimize
Variables            :   26081  [Nneg: 1,  Box: 21616,  Free: 4464]
Objective nonzeros   :    2496
Linear constraints   :   27515  [Less: 14006,  Greater: 4416,  Equal: 9093]
  Nonzeros           :   89219
  RHS nonzeros       :   12271

Variables            : Min LB: -5000.000        Max UB: 1000000.       
Objective nonzeros   : Min   : 15.73158         Max   : 124.0997       
Linear constraints   :
  Nonzeros           : Min   : 0.8500000        Max   : 3000.000       
  RHS nonzeros       : Min   : 0.3833333        Max   : 5000.000       
CPLEX> CPXPARAM_Parallel                                -1
CPXPARAM_Simplex_Tolerances_Feasibility          0.01
CPXPARAM_DetTimeLimit                            75000
CPXPARAM_MIP_Tolerances_MIPGap                   0.01
CPXPARAM_MIP_Tolerances_Integrality              1.0000000000000001e-09
Parallel mode: opportunistic, using up to 32 threads for concurrent optimization.
Tried aggregator 1 time.
LP Presolve eliminated 21377 rows and 15487 columns.
Aggregator did 748 substitutions.
Reduced LP has 5390 rows, 9846 columns, and 31784 nonzeros.
Presolve time = 0.06 sec. (30.20 ticks)
Symmetry aggregator did 5563 additional substitutions.

Iteration log . . .
Iteration:     1   Dual objective     =             0.000000
Perturbation started.
Iteration:   101   Dual objective     =             0.000000
Iteration:   335   Dual objective     =             1.312225
Iteration:   603   Dual objective     =             1.910417
Iteration:   851   Dual objective     =             2.056575
Iteration:  1049   Dual objective     =             2.177055
Iteration:  1326   Dual objective     =             2.234443
Iteration:  1583   Dual objective     =             2.266851
Iteration:  1799   Dual objective     =          5180.066769
Iteration:  2016   Dual objective     =        144267.335408
Iteration:  2224   Dual objective     =        164500.535891
Iteration:  2419   Dual objective     =        166419.511753
Iteration:  2687   Dual objective     =        167068.784202
Iteration:  3039   Dual objective     =        167692.351045
Removing perturbation.

Dual crossover.
  Dual:  Fixing 5 variables.
Using devex.

Primal simplex solved model.


Primal simplex - Optimal:  Objective =  1.6769907853e+05
Solution time =    0.17 sec.  Iterations = 1659 (1063)
Deterministic time = 81.30 ticks  (472.66 ticks/sec)

CPLEX> Solution written to file 'C:\Users\llavin\Desktop\test919\logs\tmpfn2tucj1.cplex.sol'.
CPLEX> Exporting results... 
...storage offer mitigation file created
Converting model to MPEC...
...converted
NOTE: initial MIP solve with only storage competitive to get feasible solution
Solving...

Welcome to IBM(R) ILOG(R) CPLEX(R) Interactive Optimizer 12.9.0.0
  with Simplex, Mixed Integer & Barrier Optimizers
5725-A06 5725-A29 5724-Y48 5724-Y49 5724-Y54 5724-Y55 5655-Y21
Copyright IBM Corp. 1988, 2019.  All Rights Reserved.

Type 'help' for a list of available commands.
Type 'help' followed by a command name for more
information on commands.

CPLEX> Logfile 'cplex.log' closed.
Logfile 'C:\Users\llavin\Desktop\test919\logs\tmpuk0tsnx1.cplex.log' open.
CPLEX> New value for parallel optimization mode: -1
CPLEX> New value for mixed integer optimality gap tolerance: 0.01
CPLEX> New value for integrality tolerance: 1e-09
CPLEX> New value for feasibility tolerance: 0.01
CPLEX> New value for deterministic time limit in ticks: 75000
CPLEX> Problem 'C:\Users\llavin\Desktop\test919\logs\tmp19ipl5sg.pyomo.lp' read.
Read time = 0.25 sec. (14.78 ticks)
CPLEX> Problem name         : C:\Users\llavin\Desktop\test919\logs\tmp19ipl5sg.pyomo.lp
Objective sense      : Maximize
Variables            :   53805  [Nneg: 1,  Box: 22000,  Free: 4464,
                                 Binary: 27340]
Objective nonzeros   :    9029
Linear constraints   :  123205  [Less: 41346,  Greater: 59096,  Equal: 22763]
  Nonzeros           :  291753
  RHS nonzeros       :   67491

Variables            : Min LB: -5000.000        Max UB: 1000000.       
Objective nonzeros   : Min   : 0.3833333        Max   : 2500.000       
Linear constraints   :
  Nonzeros           : Min   : 0.3833333        Max   : 1000000.       
  RHS nonzeros       : Min   : 0.3833333        Max   : 1000000.       
CPLEX> CPXPARAM_Parallel                                -1
CPXPARAM_Simplex_Tolerances_Feasibility          0.01
CPXPARAM_DetTimeLimit                            75000
CPXPARAM_MIP_Tolerances_MIPGap                   0.01
CPXPARAM_MIP_Tolerances_Integrality              1.0000000000000001e-09
Tried aggregator 3 times.
MIP Presolve eliminated 88694 rows and 19018 columns.
MIP Presolve added 3370 rows and 0 columns.
MIP Presolve modified 24842 coefficients.
Aggregator did 12965 substitutions.
Reduced MIP has 24916 rows, 21266 columns, and 71070 nonzeros.
Reduced MIP has 8404 binaries, 0 generals, 0 SOSs, and 0 indicators.
Presolve time = 0.30 sec. (173.41 ticks)
Probing fixed 386 vars, tightened 2845 bounds.
Probing time = 1.25 sec. (913.05 ticks)
Tried aggregator 2 times.
MIP Presolve eliminated 871 rows and 777 columns.
MIP Presolve modified 2213 coefficients.
Aggregator did 37 substitutions.
Reduced MIP has 24008 rows, 20452 columns, and 68435 nonzeros.
Reduced MIP has 8016 binaries, 0 generals, 0 SOSs, and 0 indicators.
Presolve time = 0.11 sec. (69.25 ticks)
Probing time = 0.03 sec. (15.64 ticks)
Clique table members: 6621.
MIP emphasis: balance optimality and feasibility.
MIP search method: dynamic search.
Parallel mode: opportunistic, using up to 32 threads.
Root relaxation solution time = 0.39 sec. (292.16 ticks)

        Nodes                                         Cuts/
   Node  Left     Objective  IInf  Best Integer    Best Bound    ItCnt     Gap

      0     0     3969.8949  1645                   3969.8949     6872         
      0     0     3969.8949   564                   Cuts: 702     7216         
      0     0     3969.8949   471                   Cuts: 315     7358         
      0     0     3969.8949   405                   Cuts: 204     7451         
      0     0     3969.8949   369                    Cuts: 98     7502         
      0     0     3969.8949   345                    Cuts: 72     7536         
      0     0     3969.8949   319                    Cuts: 54     7558         
      0     0     3969.8949   307                    Cuts: 48     7569         
      0     0     3969.8949   301                    Cuts: 25     7575         
*     0+    0                         3957.8201     3964.3813             0.17%

Clique cuts applied:  5
Implied bound cuts applied:  14
Flow cuts applied:  401
Mixed integer rounding cuts applied:  10
Gomory fractional cuts applied:  27

Root node processing (before b&c):
  Real time             =    5.95 sec. (4243.11 ticks)
Parallel b&c, 32 threads:
  Real time             =    0.00 sec. (0.00 ticks)
  Sync time (average)   =    0.00 sec.
  Wait time (average)   =    0.00 sec.
                          ------------
Total (root+branch&cut) =    5.95 sec. (4243.11 ticks)

Solution pool: 1 solution saved.

MIP - Integer optimal, tolerance (0.01/1e-06):  Objective =  3.9578200562e+03
Current MIP best bound =  3.9643813170e+03 (gap = 6.56126, 0.17%)
Solution time =    5.98 sec.  Iterations = 7575  Nodes = 0 (1)
Deterministic time = 4243.26 ticks  (709.10 ticks/sec)

CPLEX> Incumbent solution written to file 'C:\Users\llavin\Desktop\test919\logs\tmpzwib4x09.cplex.sol'.
CPLEX> NOTE: no warmstart specified for MIP iteration, default behavior is true
NOTE: resolving with all competitive generators using storage-only solution to warmstart
Solving...

Welcome to IBM(R) ILOG(R) CPLEX(R) Interactive Optimizer 12.9.0.0
  with Simplex, Mixed Integer & Barrier Optimizers
5725-A06 5725-A29 5724-Y48 5724-Y49 5724-Y54 5724-Y55 5655-Y21
Copyright IBM Corp. 1988, 2019.  All Rights Reserved.

Type 'help' for a list of available commands.
Type 'help' followed by a command name for more
information on commands.

CPLEX> Logfile 'cplex.log' closed.
Logfile 'C:\Users\llavin\Desktop\test919\logs\tmppnvo339n.cplex.log' open.
CPLEX> New value for parallel optimization mode: -1
CPLEX> New value for mixed integer optimality gap tolerance: 0.01
CPLEX> New value for integrality tolerance: 1e-09
CPLEX> New value for feasibility tolerance: 0.01
CPLEX> New value for deterministic time limit in ticks: 75000
CPLEX> Problem 'C:\Users\llavin\Desktop\test919\logs\tmpj337idm5.pyomo.lp' read.
Read time = 0.25 sec. (14.81 ticks)
CPLEX> MIP start file 'C:\Users\llavin\Desktop\test919\logs\tmp80qv3aj4.cplex.mst' read.
CPLEX> Problem name         : C:\Users\llavin\Desktop\test919\logs\tmpj337idm5.pyomo.lp
Objective sense      : Maximize
Variables            :   54525  [Nneg: 1,  Box: 22720,  Free: 4464,
                                 Binary: 27340]
Objective nonzeros   :    9725
Linear constraints   :  123205  [Less: 41346,  Greater: 59096,  Equal: 22763]
  Nonzeros           :  291753
  RHS nonzeros       :   67491

Variables            : Min LB: -5000.000        Max UB: 1000000.       
Objective nonzeros   : Min   : 0.3833333        Max   : 2500.000       
Linear constraints   :
  Nonzeros           : Min   : 0.3833333        Max   : 1000000.       
  RHS nonzeros       : Min   : 0.3833333        Max   : 1000000.       
CPLEX> CPXPARAM_Parallel                                -1
CPXPARAM_Simplex_Tolerances_Feasibility          0.01
CPXPARAM_DetTimeLimit                            75000
CPXPARAM_MIP_Tolerances_MIPGap                   0.01
CPXPARAM_MIP_Tolerances_Integrality              1.0000000000000001e-09
Warning:  No solution found from 1 MIP starts.
Retaining values of one MIP start for possible repair.
Tried aggregator 3 times.
MIP Presolve eliminated 88694 rows and 19738 columns.
MIP Presolve added 3370 rows and 0 columns.
MIP Presolve modified 24842 coefficients.
Aggregator did 12965 substitutions.
Reduced MIP has 24916 rows, 21266 columns, and 71070 nonzeros.
Reduced MIP has 8404 binaries, 0 generals, 0 SOSs, and 0 indicators.
Presolve time = 0.30 sec. (173.77 ticks)
Probing fixed 386 vars, tightened 2845 bounds.
Probing time = 1.25 sec. (913.05 ticks)
Tried aggregator 2 times.
MIP Presolve eliminated 871 rows and 777 columns.
MIP Presolve modified 2213 coefficients.
Aggregator did 37 substitutions.
Reduced MIP has 24008 rows, 20452 columns, and 68435 nonzeros.
Reduced MIP has 8016 binaries, 0 generals, 0 SOSs, and 0 indicators.
Presolve time = 0.11 sec. (69.24 ticks)
Probing time = 0.03 sec. (15.64 ticks)
Clique table members: 6621.
MIP emphasis: balance optimality and feasibility.
MIP search method: dynamic search.
Parallel mode: opportunistic, using up to 32 threads.
Root relaxation solution time = 0.44 sec. (325.85 ticks)

        Nodes                                         Cuts/
   Node  Left     Objective  IInf  Best Integer    Best Bound    ItCnt     Gap

      0     0    55915.9194  1814                  55915.9194     6881         
      0     0    54448.9074   684                   Cuts: 678     7219         
      0     0    54119.7632   577                   Cuts: 398     7394         
      0     0    54119.7632   497                   Cuts: 233     7489         
      0     0    54087.0708   457                   Cuts: 111     7558         
      0     0    54087.0708   434                    Cuts: 59     7601         
      0     0    54087.0708   415                    Cuts: 60     7622         
      0     0    54087.0708   407                    Cuts: 36     7633         
      0     0    54087.0708   405                    Cuts: 28     7635         
      0     0    54087.0708   401                    Cuts: 27     7639         
Repair heuristic found nothing.
      0     2    54087.0708   401                  54078.2169     7639         
Elapsed time = 12.44 sec. (7265.90 ticks, tree = 0.02 MB, solutions = 0)
    486    54    48569.3220   385                  53279.0815     8078         
   1121   215    infeasible                        53279.0815    12069         
   1708   618    24985.9561   338                  53279.0815    18621         
   2597  1326    19622.1045   320                  53279.0815    25017         
   3845  1412    18511.7943   314                  53279.0815    25255         
   4777  3883    23278.5925   296                  53279.0815    29204         
   5583  3571    21000.6139   300                  53279.0815    28815         
   6665  5311    29897.8210   301                  53279.0815    30655         
   7941  5179    22248.8990   278                  53279.0815    30640         
*  8484+ 6184                        19632.6755    53279.0815           171.38%
Elapsed time = 25.94 sec. (9524.12 ticks, tree = 48.25 MB, solutions = 5)
* 11351  3291      integral     0    29907.8087    53279.0815    32293   78.14%
* 11363  6026      integral     0    30524.0386    53279.0815    31313   74.55%
* 11766  1996      integral     0    30524.0386    30524.0386    42300    0.00%

GUB cover cuts applied:  1
Clique cuts applied:  28
Cover cuts applied:  39
Implied bound cuts applied:  326
Flow cuts applied:  1481
Mixed integer rounding cuts applied:  1945
Gomory fractional cuts applied:  79

Root node processing (before b&c):
  Real time             =   10.67 sec. (7217.92 ticks)
Parallel b&c, 32 threads:
  Real time             =   22.39 sec. (6227.00 ticks)
  Sync time (average)   =    0.39 sec.
  Wait time (average)   =    0.00 sec.
                          ------------
Total (root+branch&cut) =   33.06 sec. (13444.92 ticks)

Solution pool: 11 solutions saved.

MIP - Integer optimal solution:  Objective =  3.0524038603e+04
Solution time =   33.08 sec.  Iterations = 42300  Nodes = 11766
Deterministic time = 13445.08 ticks  (406.47 ticks/sec)

CPLEX> Incumbent solution written to file 'C:\Users\llavin\Desktop\test919\logs\tmprr9re7gr.cplex.sol'.
CPLEX> Exporting results... 
